Version identifier: 22.1.0.0 | 2022-03-09 | 1a383f8ce
CPXPARAM_Threads                                 1
CPXPARAM_MIP_Strategy_VariableSelect             3
CPXPARAM_TimeLimit                               600
Tried aggregator 1 time.
Reduced MIP has 1125 rows, 4500 columns, and 75608 nonzeros.
Reduced MIP has 2900 binaries, 1600 generals, 0 SOSs, and 0 indicators.
Presolve time = 0.04 sec. (38.27 ticks)
Found incumbent of value 9.9909427e+74 after 0.10 sec. (79.22 ticks)
Probing time = 0.01 sec. (6.88 ticks)
Tried aggregator 1 time.
Detecting symmetries...
Reduced MIP has 1125 rows, 4500 columns, and 75608 nonzeros.
Reduced MIP has 2900 binaries, 1600 generals, 0 SOSs, and 0 indicators.
Presolve time = 0.05 sec. (45.69 ticks)
Probing time = 0.00 sec. (6.88 ticks)
Clique table members: 110.
MIP emphasis: balance optimality and feasibility.
MIP search method: dynamic search.
Parallel mode: none, using 1 thread.
Root relaxation solution time = 0.02 sec. (18.19 ticks)

        Nodes                                         Cuts/
   Node  Left     Objective  IInf  Best Integer    Best Bound    ItCnt     Gap

*     0+    0                       9.99094e+74        0.0000           100.00%
      0     0        0.0000   502   9.99094e+74        0.0000      257  100.00%
*     0+    0                            0.0000        0.0000             0.00%
      0     0        cutoff              0.0000        0.0000      257    0.00%
Elapsed time = 0.22 sec. (186.50 ticks, tree = 0.01 MB, solutions = 2)

Root node processing (before b&c):
  Real time             =    0.22 sec. (186.66 ticks)
Sequential b&c:
  Real time             =    0.00 sec. (0.00 ticks)
                          ------------
Total (root+branch&cut) =    0.22 sec. (186.66 ticks)
Violation-free sequence bound:	100
Unscheduled:	0
Status:	Optimal
Time:	0.22
Sequence:
	0
	0
	3
	3
	3
	10
	10
	21
	0
	21
	21
	21
	5
	21
	21
	0
	24
	13
	9
	10
	0
	3
	21
	0
	1
	21
	23
	23
	11
	18
	5
	3
	0
	5
	2
	23
	23
	15
	20
	5
	12
	2
	6
	23
	18
	8
	2
	23
	19
	0
	0
	15
	15
	8
	14
	18
	23
	23
	8
	6
	23
	15
	0
	19
	10
	18
	11
	10
	8
	6
	22
	16
	12
	3
	8
	17
	13
	0
	0
	15
	18
	4
	19
	10
	18
	21
	6
	18
	15
	0
	3
	15
	2
	15
	5
	7
	18
	15
	18
	18
Violation-free sequence:
	0
	0
	3
	3
	3
	10
	10
	21
	0
	21
	21
	21
	5
	21
	21
	0
	24
	13
	9
	10
	0
	3
	21
	0
	1
	21
	23
	23
	11
	18
	5
	3
	0
	5
	2
	23
	23
	15
	20
	5
	12
	2
	6
	23
	18
	8
	2
	23
	19
	0
	0
	15
	15
	8
	14
	18
	23
	23
	8
	6
	23
	15
	0
	19
	10
	18
	11
	10
	8
	6
	22
	16
	12
	3
	8
	17
	13
	0
	0
	15
	18
	4
	19
	10
	18
	21
	6
	18
	15
	0
	3
	15
	2
	15
	5
	7
	18
	15
	18
	18
